peakDumbCharging = 22200; 
Machine = anon_enum(16); 
machineSpeed = [3700,3700,3700,3700,3700,3700,3700,3700,3700,3700,3700,3700,3700,3700,3700,3700]; 
machineLoad = [3700,3700,3700,3700,3700,3700,3700,3700,3700,3700,3700,3700,3700,3700,3700,3700]; 
Car = anon_enum(29); 
demandCar = [8920,33400,5720,4600,10040,18160,3880,5240,8840,11440,7880,21600,12120,9120,4080,12360,15040,3800,10560,21000,3120,8080,12560,6200,12680,7320,9920,13600,4960]; 
arrivalCar = [67,67,66,65,64,63,62,60,59,58,57,55,53,52,52,50,49,48,47,47,47,47,42,39,38,38,37,32,31]; 
departureCar = [71,79,69,68,69,69,64,67,64,62,61,65,58,58,58,56,58,50,52,55,49,50,50,44,46,42,44,38,34]; 
